RT is False
Default write of storage_offers_DA.csv just to have a file (but constraint should be inactive)
Reading model...
...model read.
creating competitive generators file...
...competitive generators recorded.
Loading data...
.. day-ahead data read.
Compiling instance...
...instance created.
Creating Offer Mitigation (model will solve as dispatch if TRUE)...
NOTE: storage offers will not be mitigated
...storage offer mitigation file created
Converting model to MPEC...
...converted
NOTE: initial MIP solve with only storage competitive to get feasible solution
Solving...

Welcome to IBM(R) ILOG(R) CPLEX(R) Interactive Optimizer 12.9.0.0
  with Simplex, Mixed Integer & Barrier Optimizers
5725-A06 5725-A29 5724-Y48 5724-Y49 5724-Y54 5724-Y55 5655-Y21
Copyright IBM Corp. 1988, 2019.  All Rights Reserved.

Type 'help' for a list of available commands.
Type 'help' followed by a command name for more
information on commands.

CPLEX> Logfile 'cplex.log' closed.
Logfile 'C:\Users\Luke\Desktop\test919\logs\tmpupqr43ph.cplex.log' open.
CPLEX> New value for parallel optimization mode: -1
CPLEX> New value for mixed integer optimality gap tolerance: 0.01
CPLEX> New value for integrality tolerance: 1e-09
CPLEX> New value for feasibility tolerance: 0.01
CPLEX> New value for deterministic time limit in ticks: 75000
CPLEX> Problem 'C:\Users\Luke\Desktop\test919\logs\tmpnpw7dgxh.pyomo.lp' read.
Read time = 0.20 sec. (14.73 ticks)
CPLEX> Problem name         : C:\Users\Luke\Desktop\test919\logs\tmpnpw7dgxh.pyomo.lp
Objective sense      : Maximize
Variables            :   53805  [Nneg: 1,  Box: 22000,  Free: 4464,
                                 Binary: 27340]
Objective nonzeros   :    9093
Linear constraints   :  123205  [Less: 41346,  Greater: 59096,  Equal: 22763]
  Nonzeros           :  291817
  RHS nonzeros       :   67555

Variables            : Min LB: -5000.000        Max UB: 1000000.       
Objective nonzeros   : Min   : 0.1000000        Max   : 2500.000       
Linear constraints   :
  Nonzeros           : Min   : 0.1000000        Max   : 1000000.       
  RHS nonzeros       : Min   : 0.1000000        Max   : 1000000.       
CPLEX> CPXPARAM_Parallel                                -1
CPXPARAM_Simplex_Tolerances_Feasibility          0.01
CPXPARAM_DetTimeLimit                            75000
CPXPARAM_MIP_Tolerances_MIPGap                   0.01
CPXPARAM_MIP_Tolerances_Integrality              1.0000000000000001e-09
Tried aggregator 3 times.
MIP Presolve eliminated 88360 rows and 18733 columns.
MIP Presolve added 3435 rows and 0 columns.
MIP Presolve modified 24970 coefficients.
Aggregator did 13000 substitutions.
Reduced MIP has 25280 rows, 21565 columns, and 72005 nonzeros.
Reduced MIP has 8536 binaries, 0 generals, 0 SOSs, and 0 indicators.
Presolve time = 0.25 sec. (173.91 ticks)
Probing fixed 398 vars, tightened 2931 bounds.
Probing time = 1.44 sec. (906.50 ticks)
Tried aggregator 2 times.
MIP Presolve eliminated 895 rows and 800 columns.
MIP Presolve modified 2277 coefficients.
Aggregator did 41 substitutions.
Reduced MIP has 24344 rows, 20724 columns, and 69282 nonzeros.
Reduced MIP has 8137 binaries, 0 generals, 0 SOSs, and 0 indicators.
Presolve time = 0.09 sec. (74.22 ticks)
Probing time = 0.03 sec. (16.35 ticks)
Clique table members: 6407.
MIP emphasis: balance optimality and feasibility.
MIP search method: dynamic search.
Parallel mode: opportunistic, using up to 24 threads.
Root relaxation solution time = 0.39 sec. (521.08 ticks)

        Nodes                                         Cuts/
   Node  Left     Objective  IInf  Best Integer    Best Bound    ItCnt     Gap

      0     0     1445.7680   719                   1445.7680     6040         
*     0+    0                         1445.7680     1445.7680             0.00%
      0     0        cutoff           1445.7680     1445.7680     6040    0.00%
Elapsed time = 4.19 sec. (3240.18 ticks, tree = 0.01 MB, solutions = 1)

Root node processing (before b&c):
  Real time             =    4.20 sec. (3242.02 ticks)
Parallel b&c, 24 threads:
  Real time             =    0.00 sec. (0.00 ticks)
  Sync time (average)   =    0.00 sec.
  Wait time (average)   =    0.00 sec.
                          ------------
Total (root+branch&cut) =    4.20 sec. (3242.02 ticks)

Solution pool: 1 solution saved.

MIP - Integer optimal solution:  Objective =  1.4457679779e+03
Solution time =    4.22 sec.  Iterations = 6040  Nodes = 0
Deterministic time = 3242.17 ticks  (768.47 ticks/sec)

CPLEX> Incumbent solution written to file 'C:\Users\Luke\Desktop\test919\logs\tmpxgc0u406.cplex.sol'.
CPLEX> NOTE: no warmstart specified for MIP iteration, default behavior is true
NOTE: resolving with all competitive generators using storage-only solution to warmstart
Solving...

Welcome to IBM(R) ILOG(R) CPLEX(R) Interactive Optimizer 12.9.0.0
  with Simplex, Mixed Integer & Barrier Optimizers
5725-A06 5725-A29 5724-Y48 5724-Y49 5724-Y54 5724-Y55 5655-Y21
Copyright IBM Corp. 1988, 2019.  All Rights Reserved.

Type 'help' for a list of available commands.
Type 'help' followed by a command name for more
information on commands.

CPLEX> Logfile 'cplex.log' closed.
Logfile 'C:\Users\Luke\Desktop\test919\logs\tmp8l1j4bl_.cplex.log' open.
CPLEX> New value for parallel optimization mode: -1
CPLEX> New value for mixed integer optimality gap tolerance: 0.01
CPLEX> New value for integrality tolerance: 1e-09
CPLEX> New value for feasibility tolerance: 0.01
CPLEX> New value for deterministic time limit in ticks: 75000
CPLEX> Problem 'C:\Users\Luke\Desktop\test919\logs\tmpu95ngbrq.pyomo.lp' read.
Read time = 0.20 sec. (14.75 ticks)
CPLEX> MIP start file 'C:\Users\Luke\Desktop\test919\logs\tmpt_j9pn7z.cplex.mst' read.
CPLEX> Problem name         : C:\Users\Luke\Desktop\test919\logs\tmpu95ngbrq.pyomo.lp
Objective sense      : Maximize
Variables            :   54525  [Nneg: 1,  Box: 22720,  Free: 4464,
                                 Binary: 27340]
Objective nonzeros   :    9813
Linear constraints   :  123205  [Less: 41346,  Greater: 59096,  Equal: 22763]
  Nonzeros           :  291817
  RHS nonzeros       :   67555

Variables            : Min LB: -5000.000        Max UB: 1000000.       
Objective nonzeros   : Min   : 0.1000000        Max   : 2500.000       
Linear constraints   :
  Nonzeros           : Min   : 0.1000000        Max   : 1000000.       
  RHS nonzeros       : Min   : 0.1000000        Max   : 1000000.       
CPLEX> CPXPARAM_Parallel                                -1
CPXPARAM_Simplex_Tolerances_Feasibility          0.01
CPXPARAM_DetTimeLimit                            75000
CPXPARAM_MIP_Tolerances_MIPGap                   0.01
CPXPARAM_MIP_Tolerances_Integrality              1.0000000000000001e-09
Warning:  No solution found from 1 MIP starts.
Retaining values of one MIP start for possible repair.
Tried aggregator 3 times.
MIP Presolve eliminated 88360 rows and 19453 columns.
MIP Presolve added 3435 rows and 0 columns.
MIP Presolve modified 24970 coefficients.
Aggregator did 13000 substitutions.
Reduced MIP has 25280 rows, 21565 columns, and 72005 nonzeros.
Reduced MIP has 8536 binaries, 0 generals, 0 SOSs, and 0 indicators.
Presolve time = 0.25 sec. (174.27 ticks)
Probing fixed 398 vars, tightened 2931 bounds.
Probing time = 1.44 sec. (906.50 ticks)
Tried aggregator 2 times.
MIP Presolve eliminated 895 rows and 800 columns.
MIP Presolve modified 2277 coefficients.
Aggregator did 41 substitutions.
Reduced MIP has 24344 rows, 20724 columns, and 69282 nonzeros.
Reduced MIP has 8137 binaries, 0 generals, 0 SOSs, and 0 indicators.
Presolve time = 0.11 sec. (74.22 ticks)
Probing time = 0.02 sec. (16.35 ticks)
Clique table members: 6407.
MIP emphasis: balance optimality and feasibility.
MIP search method: dynamic search.
Parallel mode: opportunistic, using up to 24 threads.
Root relaxation solution time = 0.41 sec. (521.08 ticks)

        Nodes                                         Cuts/
   Node  Left     Objective  IInf  Best Integer    Best Bound    ItCnt     Gap

      0     0     1445.7680   719                   1445.7680     6040         
*     0+    0                         1445.7680     1445.7680             0.00%
      0     0        cutoff           1445.7680     1445.7680     6040    0.00%
Elapsed time = 4.28 sec. (3267.68 ticks, tree = 0.01 MB, solutions = 1)

Root node processing (before b&c):
  Real time             =    4.30 sec. (3269.54 ticks)
Parallel b&c, 24 threads:
  Real time             =    0.00 sec. (0.00 ticks)
  Sync time (average)   =    0.00 sec.
  Wait time (average)   =    0.00 sec.
                          ------------
Total (root+branch&cut) =    4.30 sec. (3269.54 ticks)

Solution pool: 1 solution saved.

MIP - Integer optimal solution:  Objective =  1.4457679779e+03
Solution time =    4.31 sec.  Iterations = 6040  Nodes = 0
Deterministic time = 3269.69 ticks  (758.28 ticks/sec)

CPLEX> Incumbent solution written to file 'C:\Users\Luke\Desktop\test919\logs\tmpvifesq6e.cplex.sol'.
CPLEX> Exporting results... 
